WARNING: for repeatability, setting FPU to use double precision
============================[ Problem Statistics ]=============================
|                                                                             |
|  Number of variables:            50                                         |
|  Number of clauses:             218                                         |
|  Parse time:                   0.00 s                                       |
|                                                                             |
============================[ Search Statistics ]==============================
| Conflicts |          ORIGINAL         |          LEARNT          | Progress |
|           |    Vars  Clauses Literals |    Limit  Clauses Lit/Cl |          |
===============================================================================
===============================================================================
restarts              : 1
conflicts             : 71             (47270 /sec)
decisions             : 82             (0.00 % random) (54594 /sec)
propagations          : 930            (619174 /sec)
conflict literals     : 238            (17.65 % deleted)
Memory used           : 20.00 MB
CPU time              : 0.001502 s

UNSATISFIABLE
